datasets/2-dimensional/CL_07_25_07.vbp
2
150 150 
25
30 26 30
32 30 72
74 70 4
67 68 88
30 21 54
87 96 64
69 77 90
74 78 26
66 69 94
36 31 28
82 81 72
89 87 49
47 51 54
55 50 19
77 72 28
24 18 61
73 65 84
29 21 23
44 50 67
55 45 53
27 18 54
30 28 16
82 92 9
68 59 54
60 52 77
