datasets/2-dimensional/CL_07_25_07.txt
150 150 
0 30 30 26 
1 72 32 30 
2 4 74 70 
3 88 67 68 
4 54 30 21 
5 64 87 96 
6 90 69 77 
7 26 74 78 
8 94 66 69 
9 28 36 31 
10 72 82 81 
11 49 89 87 
12 54 47 51 
13 19 55 50 
14 28 77 72 
15 61 24 18 
16 84 73 65 
17 23 29 21 
18 67 44 50 
19 53 55 45 
20 54 27 18 
21 16 30 28 
22 9 82 92 
23 54 68 59 
24 77 60 52 
